c "239931.clq"
p edge 200 784
e 1 5
e 1 31
e 1 32
e 1 49
e 1 72
e 2 5
e 2 6
e 2 7
e 2 9
e 2 10
e 2 14
e 2 16
e 2 22
e 2 24
e 2 25
e 2 26
e 2 34
e 2 37
e 2 39
e 2 47
e 2 61
e 2 65
e 2 66
e 2 67
e 2 68
e 2 70
e 2 73
e 2 74
e 2 87
e 2 94
e 2 120
e 2 121
e 2 125
e 2 128
e 2 129
e 2 155
e 2 170
e 2 178
e 2 187
e 2 189
e 2 199
e 2 200
e 3 5
e 3 6
e 3 7
e 3 8
e 3 10
e 3 11
e 3 12
e 3 13
e 3 17
e 3 18
e 3 21
e 3 22
e 3 23
e 3 26
e 3 30
e 3 38
e 3 71
e 3 74
e 3 84
e 3 106
e 3 107
e 3 111
e 3 116
e 3 132
e 3 139
e 3 153
e 3 158
e 3 164
e 3 168
e 3 190
e 3 192
e 3 198
e 4 5
e 4 6
e 4 7
e 4 8
e 4 9
e 4 11
e 4 13
e 4 14
e 4 15
e 4 21
e 4 25
e 4 30
e 4 54
e 4 55
e 4 56
e 4 60
e 4 72
e 4 91
e 4 121
e 4 123
e 4 146
e 4 148
e 4 178
e 4 188
e 4 190
e 4 191
e 5 6
e 5 7
e 5 8
e 5 9
e 5 10
e 5 11
e 5 14
e 5 16
e 5 17
e 5 18
e 5 20
e 5 22
e 5 23
e 5 24
e 5 28
e 5 33
e 5 43
e 5 45
e 5 57
e 5 62
e 5 65
e 5 68
e 5 71
e 5 76
e 5 95
e 5 105
e 5 119
e 5 127
e 5 133
e 5 140
e 5 141
e 5 144
e 5 148
e 5 159
e 5 161
e 5 186
e 6 8
e 6 9
e 6 12
e 6 15
e 6 19
e 6 20
e 6 23
e 6 26
e 6 27
e 6 29
e 6 31
e 6 32
e 6 35
e 6 36
e 6 37
e 6 38
e 6 39
e 6 44
e 6 48
e 6 49
e 6 50
e 6 52
e 6 54
e 6 55
e 6 56
e 6 58
e 6 59
e 6 63
e 6 66
e 6 68
e 6 74
e 6 75
e 6 77
e 6 78
e 6 83
e 6 84
e 6 93
e 6 103
e 6 112
e 6 113
e 6 123
e 6 126
e 6 143
e 6 151
e 6 154
e 6 155
e 6 166
e 6 173
e 6 175
e 6 181
e 6 185
e 6 188
e 6 195
e 6 200
e 7 15
e 7 16
e 7 18
e 7 19
e 7 20
e 7 21
e 7 22
e 7 24
e 7 28
e 7 29
e 7 30
e 7 31
e 7 33
e 7 38
e 7 43
e 7 47
e 7 48
e 7 52
e 7 54
e 7 68
e 7 72
e 7 87
e 7 96
e 7 98
e 7 103
e 7 108
e 7 127
e 7 132
e 7 135
e 7 142
e 7 148
e 7 159
e 7 163
e 7 166
e 7 176
e 7 178
e 7 185
e 7 190
e 7 196
e 8 12
e 8 13
e 8 35
e 8 51
e 8 65
e 8 83
e 8 93
e 8 94
e 8 185
e 8 191
e 9 10
e 9 13
e 9 14
e 9 17
e 9 18
e 9 31
e 9 40
e 9 41
e 9 46
e 9 50
e 9 86
e 9 99
e 9 112
e 9 143
e 9 161
e 9 165
e 9 174
e 10 11
e 10 15
e 10 19
e 10 20
e 10 28
e 10 34
e 10 36
e 10 40
e 10 43
e 10 50
e 10 64
e 10 70
e 10 73
e 10 86
e 10 91
e 10 99
e 10 113
e 10 133
e 10 142
e 10 149
e 10 156
e 10 160
e 10 176
e 11 12
e 11 33
e 11 35
e 11 40
e 11 42
e 11 44
e 11 61
e 11 77
e 11 91
e 11 106
e 11 120
e 11 132
e 11 134
e 11 147
e 11 150
e 11 157
e 11 158
e 12 27
e 12 45
e 12 69
e 12 160
e 12 162
e 12 196
e 13 16
e 13 24
e 13 26
e 13 34
e 13 41
e 13 42
e 13 90
e 13 92
e 13 114
e 13 151
e 14 27
e 14 41
e 14 51
e 14 83
e 14 84
e 14 88
e 14 94
e 14 96
e 14 155
e 15 66
e 15 69
e 15 97
e 15 98
e 15 107
e 15 135
e 15 137
e 15 184
e 16 17
e 16 23
e 16 37
e 16 46
e 16 63
e 16 80
e 16 87
e 16 109
e 16 117
e 16 167
e 16 183
e 17 19
e 17 21
e 17 29
e 17 30
e 17 40
e 17 47
e 17 50
e 17 58
e 17 65
e 17 79
e 17 92
e 17 101
e 17 110
e 17 123
e 17 130
e 17 131
e 17 133
e 17 157
e 17 170
e 17 177
e 17 195
e 17 198
e 18 29
e 18 49
e 18 70
e 18 92
e 18 100
e 18 102
e 18 126
e 18 134
e 18 170
e 19 28
e 19 32
e 19 35
e 19 37
e 19 41
e 19 58
e 19 67
e 19 88
e 19 93
e 19 104
e 19 107
e 19 115
e 19 124
e 19 128
e 19 130
e 19 134
e 19 169
e 19 179
e 19 180
e 20 25
e 20 34
e 20 36
e 20 38
e 20 53
e 20 72
e 20 78
e 20 105
e 20 116
e 20 138
e 20 152
e 20 188
e 21 36
e 21 62
e 21 79
e 21 81
e 21 100
e 21 110
e 21 111
e 21 115
e 21 116
e 21 119
e 21 125
e 21 131
e 21 138
e 21 150
e 21 165
e 21 199
e 22 58
e 23 32
e 23 62
e 23 105
e 23 157
e 23 175
e 24 25
e 24 27
e 24 42
e 24 100
e 24 102
e 24 104
e 24 135
e 24 181
e 25 136
e 25 173
e 26 48
e 26 53
e 26 56
e 26 75
e 26 80
e 26 95
e 26 126
e 26 129
e 26 161
e 27 57
e 27 95
e 27 113
e 27 189
e 28 42
e 28 44
e 28 51
e 28 54
e 28 86
e 28 89
e 28 130
e 28 162
e 29 109
e 29 166
e 29 183
e 30 39
e 30 49
e 30 53
e 30 57
e 30 93
e 30 124
e 30 144
e 30 179
e 30 187
e 31 33
e 31 45
e 31 48
e 31 55
e 31 64
e 31 73
e 31 82
e 31 140
e 31 156
e 31 159
e 31 187
e 32 47
e 32 51
e 32 57
e 32 81
e 32 97
e 33 122
e 33 127
e 33 154
e 33 192
e 34 85
e 34 95
e 34 98
e 34 101
e 35 53
e 35 141
e 35 156
e 36 43
e 36 46
e 36 52
e 36 61
e 36 73
e 36 76
e 36 136
e 36 146
e 36 191
e 37 90
e 37 118
e 37 132
e 37 164
e 38 39
e 38 56
e 38 59
e 38 63
e 38 67
e 38 69
e 38 75
e 38 76
e 38 91
e 38 112
e 38 164
e 38 169
e 38 183
e 39 67
e 39 174
e 40 45
e 40 59
e 40 101
e 40 143
e 40 147
e 40 171
e 40 180
e 41 44
e 41 46
e 41 79
e 41 81
e 41 83
e 41 118
e 41 122
e 41 179
e 41 196
e 42 198
e 43 62
e 43 71
e 43 141
e 43 144
e 43 193
e 44 55
e 44 69
e 44 76
e 44 78
e 44 111
e 45 60
e 45 107
e 45 152
e 45 163
e 45 171
e 46 136
e 46 147
e 46 149
e 47 78
e 47 99
e 47 134
e 47 142
e 47 150
e 47 182
e 48 52
e 48 87
e 48 103
e 48 124
e 48 195
e 49 66
e 49 82
e 49 92
e 49 133
e 49 158
e 50 88
e 50 99
e 50 100
e 51 86
e 51 118
e 51 139
e 51 151
e 51 160
e 52 141
e 53 60
e 53 82
e 54 101
e 54 106
e 54 122
e 54 138
e 54 139
e 54 146
e 55 112
e 56 61
e 56 71
e 56 84
e 56 117
e 56 193
e 57 60
e 57 75
e 57 85
e 57 117
e 57 169
e 57 189
e 58 59
e 58 77
e 58 89
e 58 102
e 58 144
e 58 169
e 58 183
e 59 88
e 59 90
e 59 150
e 60 64
e 60 114
e 60 142
e 61 161
e 62 63
e 62 64
e 62 85
e 62 111
e 62 130
e 62 182
e 63 195
e 64 90
e 64 96
e 64 119
e 64 136
e 64 165
e 64 170
e 64 197
e 65 70
e 65 115
e 65 152
e 66 74
e 66 77
e 66 104
e 67 120
e 67 184
e 68 110
e 68 145
e 68 171
e 69 82
e 69 137
e 69 155
e 70 140
e 70 186
e 71 125
e 71 126
e 71 189
e 71 197
e 73 140
e 73 200
e 74 85
e 74 94
e 74 96
e 74 194
e 75 79
e 75 81
e 75 124
e 76 147
e 77 80
e 77 103
e 77 115
e 77 116
e 78 121
e 79 80
e 79 108
e 79 123
e 79 137
e 79 138
e 81 89
e 81 175
e 82 121
e 83 143
e 85 108
e 85 125
e 85 164
e 85 181
e 85 190
e 85 193
e 87 120
e 87 152
e 88 89
e 88 97
e 88 102
e 88 184
e 89 153
e 90 109
e 90 118
e 90 127
e 90 131
e 90 157
e 91 128
e 91 135
e 91 166
e 92 131
e 92 197
e 93 114
e 94 98
e 94 160
e 95 128
e 96 97
e 97 105
e 97 194
e 98 114
e 98 153
e 99 104
e 99 139
e 99 156
e 99 162
e 99 168
e 101 167
e 102 199
e 103 119
e 104 106
e 104 110
e 104 151
e 104 154
e 104 163
e 106 109
e 106 172
e 107 108
e 107 198
e 108 117
e 108 122
e 109 113
e 111 154
e 111 162
e 112 194
e 114 192
e 116 153
e 117 176
e 119 158
e 122 129
e 122 145
e 122 172
e 123 182
e 124 167
e 124 192
e 125 188
e 126 185
e 128 129
e 128 137
e 130 145
e 130 174
e 130 186
e 131 146
e 132 178
e 138 196
e 140 177
e 141 145
e 141 149
e 141 174
e 143 165
e 143 177
e 144 168
e 146 148
e 146 159
e 146 167
e 146 168
e 148 149
e 148 172
e 149 172
e 149 180
e 152 179
e 153 171
e 153 180
e 154 175
e 157 163
e 157 182
e 160 186
e 160 193
e 162 173
e 164 173
e 164 176
e 164 199
e 165 187
e 169 184
e 172 181
e 172 191
e 176 177
e 186 197
e 188 194
e 188 200
